c This file is generated by _findSolu
c Generated on Mon Nov  2 15:48:53 2015
p cnf 648 1831
1 54 0
-1 -54 0
2 55 0
-2 -55 0
4 56 0
-4 -56 0
6 57 0
-6 -57 0
207 58 0
-207 -58 0
208 59 0
-208 -59 0
12 60 0
-12 -60 0
14 61 0
-14 -61 0
16 62 0
-16 -62 0
18 63 0
-18 -63 0
20 64 0
-20 -64 0
22 65 0
-22 -65 0
212 66 0
-212 -66 0
26 67 0
-26 -67 0
28 68 0
-28 -68 0
214 69 0
-214 -69 0
32 70 0
-32 -70 0
34 71 0
-34 -71 0
-54 -2 -72 0
54 72 0
2 72 0
3 55 73 0
-3 -73 0
-55 -73 0
210 55 74 0
-210 -74 0
-55 -74 0
-56 -6 -75 0
56 75 0
6 75 0
-58 -208 -76 0
58 76 0
208 76 0
-60 -14 -77 0
60 77 0
14 77 0
-62 -18 -78 0
62 78 0
18 78 0
-64 -22 -79 0
64 79 0
22 79 0
-66 -26 -80 0
66 80 0
26 80 0
-68 -214 -81 0
68 81 0
214 81 0
-70 -34 -82 0
70 82 0
34 82 0
7 57 83 0
-7 -83 0
-57 -83 0
9 57 84 0
-9 -84 0
-57 -84 0
11 59 85 0
-11 -85 0
-59 -85 0
13 59 86 0
-13 -86 0
-59 -86 0
15 61 87 0
-15 -87 0
-61 -87 0
17 61 88 0
-17 -88 0
-61 -88 0
19 63 89 0
-19 -89 0
-63 -89 0
21 63 90 0
-21 -90 0
-63 -90 0
215 65 91 0
-215 -91 0
-65 -91 0
25 65 92 0
-25 -92 0
-65 -92 0
27 67 93 0
-27 -93 0
-67 -93 0
216 67 94 0
-216 -94 0
-67 -94 0
213 69 95 0
-213 -95 0
-69 -95 0
33 69 96 0
-33 -96 0
-69 -96 0
35 71 97 0
-35 -97 0
-71 -97 0
36 71 98 0
-36 -98 0
-71 -98 0
-72 -75 -76 -77 -78 -79 -80 -81 -82 99 0
72 -99 0
75 -99 0
76 -99 0
77 -99 0
78 -99 0
79 -99 0
80 -99 0
81 -99 0
82 -99 0
99 100 0
-99 -100 0
99 101 0
-99 -101 0
99 47 0
-99 -47 0
-100 -72 -102 0
100 72 -102 0
100 -72 102 0
-100 72 102 0
-100 -75 -103 0
100 75 -103 0
100 -75 103 0
-100 75 103 0
-100 -76 -104 0
100 76 -104 0
100 -76 104 0
-100 76 104 0
-100 -77 -105 0
100 77 -105 0
100 -77 105 0
-100 77 105 0
-100 -78 -106 0
100 78 -106 0
100 -78 106 0
-100 78 106 0
-100 -79 -107 0
100 79 -107 0
100 -79 107 0
-100 79 107 0
-1 -101 -108 0
1 108 0
101 108 0
-100 -80 -109 0
100 80 -109 0
100 -80 109 0
-100 80 109 0
-101 -4 -110 0
101 110 0
4 110 0
-100 -81 -111 0
100 81 -111 0
100 -81 111 0
-100 81 111 0
-101 -207 -112 0
101 112 0
207 112 0
-100 -82 -113 0
100 82 -113 0
100 -82 113 0
-100 82 113 0
-101 -12 -114 0
101 114 0
12 114 0
-101 -16 -115 0
101 115 0
16 115 0
-101 -20 -116 0
101 116 0
20 116 0
-101 -212 -117 0
101 117 0
212 117 0
-101 -28 -118 0
101 118 0
28 118 0
-101 -32 -119 0
101 119 0
32 119 0
-102 -73 -120 0
102 120 0
73 120 0
-102 -74 -121 0
102 121 0
74 121 0
-103 -83 -122 0
103 122 0
83 122 0
-104 -85 -123 0
104 123 0
85 123 0
-105 -87 -124 0
105 124 0
87 124 0
-106 -89 -125 0
106 125 0
89 125 0
-107 -91 -126 0
107 126 0
91 126 0
-109 -93 -127 0
109 127 0
93 127 0
-111 -95 -128 0
111 128 0
95 128 0
-113 -97 -129 0
113 129 0
97 129 0
-103 -84 -130 0
103 130 0
84 130 0
-104 -86 -131 0
104 131 0
86 131 0
-105 -88 -132 0
105 132 0
88 132 0
-106 -90 -133 0
106 133 0
90 133 0
-107 -92 -134 0
107 134 0
92 134 0
-109 -94 -135 0
109 135 0
94 135 0
-111 -96 -136 0
111 136 0
96 136 0
-113 -98 -137 0
113 137 0
98 137 0
-120 -122 -123 -124 -125 -126 -127 -128 -129 138 0
120 -138 0
122 -138 0
123 -138 0
124 -138 0
125 -138 0
126 -138 0
127 -138 0
128 -138 0
129 -138 0
121 139 0
-121 -139 0
130 140 0
-130 -140 0
131 141 0
-131 -141 0
132 142 0
-132 -142 0
133 143 0
-133 -143 0
134 144 0
-134 -144 0
135 145 0
-135 -145 0
136 146 0
-136 -146 0
137 147 0
-137 -147 0
138 148 0
-138 -148 0
138 149 0
-138 -149 0
138 211 0
-138 -211 0
-148 -120 -150 0
148 120 -150 0
148 -120 150 0
-148 120 150 0
-148 -122 -151 0
148 122 -151 0
148 -122 151 0
-148 122 151 0
-148 -123 -152 0
148 123 -152 0
148 -123 152 0
-148 123 152 0
-148 -124 -153 0
148 124 -153 0
148 -124 153 0
-148 124 153 0
-3 -149 -154 0
3 154 0
149 154 0
-148 -125 -155 0
148 125 -155 0
148 -125 155 0
-148 125 155 0
-149 -7 -156 0
149 156 0
7 156 0
-148 -126 -157 0
148 126 -157 0
148 -126 157 0
-148 126 157 0
-149 -11 -158 0
149 158 0
11 158 0
-148 -127 -159 0
148 127 -159 0
148 -127 159 0
-148 127 159 0
-149 -15 -160 0
149 160 0
15 160 0
-148 -128 -161 0
148 128 -161 0
148 -128 161 0
-148 128 161 0
-149 -19 -162 0
149 162 0
19 162 0
-148 -129 -163 0
148 129 -163 0
148 -129 163 0
-148 129 163 0
-149 -215 -164 0
149 164 0
215 164 0
-149 -27 -165 0
149 165 0
27 165 0
-149 -213 -166 0
149 166 0
213 166 0
-149 -35 -167 0
149 167 0
35 167 0
-150 -139 -168 0
150 168 0
139 168 0
-151 -140 -169 0
151 169 0
140 169 0
-152 -141 -170 0
152 170 0
141 170 0
-153 -142 -171 0
153 171 0
142 171 0
-155 -143 -172 0
155 172 0
143 172 0
-157 -144 -173 0
157 173 0
144 173 0
-159 -145 -174 0
159 174 0
145 174 0
-161 -146 -175 0
161 175 0
146 175 0
-163 -147 -176 0
163 176 0
147 176 0
-168 -169 -170 -171 -172 -173 -174 -175 -176 177 0
168 -177 0
169 -177 0
170 -177 0
171 -177 0
172 -177 0
173 -177 0
174 -177 0
175 -177 0
176 -177 0
177 178 0
-177 -178 0
177 49 0
-177 -49 0
-210 -178 -179 0
210 179 0
178 179 0
-178 -9 -180 0
178 180 0
9 180 0
-178 -13 -181 0
178 181 0
13 181 0
-178 -17 -182 0
178 182 0
17 182 0
-178 -21 -183 0
178 183 0
21 183 0
-178 -25 -184 0
178 184 0
25 184 0
-178 -216 -185 0
178 185 0
216 185 0
-178 -33 -186 0
178 186 0
33 186 0
-178 -36 -187 0
178 187 0
36 187 0
-2 -108 -154 -179 -188 0
2 188 0
108 188 0
154 188 0
179 188 0
-110 -156 -180 -6 -189 0
110 189 0
156 189 0
180 189 0
6 189 0
-112 -158 -181 -208 -190 0
112 190 0
158 190 0
181 190 0
208 190 0
-114 -160 -182 -14 -191 0
114 191 0
160 191 0
182 191 0
14 191 0
-115 -162 -183 -18 -192 0
115 192 0
162 192 0
183 192 0
18 192 0
-116 -164 -184 -22 -193 0
116 193 0
164 193 0
184 193 0
22 193 0
-117 -165 -185 -26 -194 0
117 194 0
165 194 0
185 194 0
26 194 0
-118 -166 -186 -214 -195 0
118 195 0
166 195 0
186 195 0
214 195 0
-119 -167 -187 -34 -196 0
119 196 0
167 196 0
187 196 0
34 196 0
188 197 0
-188 -197 0
-189 -190 -191 -192 -193 -194 -195 -196 198 0
189 -198 0
190 -198 0
191 -198 0
192 -198 0
193 -198 0
194 -198 0
195 -198 0
196 -198 0
191 199 0
-191 -199 0
193 200 0
-193 -200 0
194 201 0
-194 -201 0
195 202 0
-195 -202 0
197 198 209 0
-197 -209 0
-198 -209 0
-190 -199 -203 0
190 203 0
199 203 0
-190 -191 -200 -192 -204 0
190 204 0
191 204 0
200 204 0
192 204 0
-192 -191 -201 -205 0
192 205 0
191 205 0
201 205 0
-190 -191 -194 -202 -206 0
190 206 0
191 206 0
194 206 0
202 206 0
-189 -190 -203 -192 -51 0
189 51 0
190 51 0
203 51 0
192 51 0
-189 -190 -204 -205 -52 0
189 52 0
190 52 0
204 52 0
205 52 0
-189 -203 -204 -206 -53 0
189 53 0
203 53 0
204 53 0
206 53 0
-37 -8 -207 0
37 8 -207 0
37 -8 207 0
-37 8 207 0
-38 -10 -208 0
38 10 -208 0
38 -10 208 0
-38 10 208 0
-39 -24 -212 0
39 24 -212 0
39 -24 212 0
-39 24 212 0
-40 -30 -214 0
40 30 -214 0
40 -30 214 0
-40 30 214 0
-41 -5 -210 0
41 5 -210 0
41 -5 210 0
-41 5 210 0
-42 -23 -215 0
42 23 -215 0
42 -23 215 0
-42 23 215 0
-43 -29 -216 0
43 29 -216 0
43 -29 216 0
-43 29 216 0
-44 -31 -213 0
44 31 -213 0
44 -31 213 0
-44 31 213 0
-45 -211 -48 0
45 211 -48 0
45 -211 48 0
-45 211 48 0
-46 -209 -50 0
46 209 -50 0
46 -209 50 0
-46 209 50 0
1 0
2 0
3 0
4 0
5 0
6 0
7 0
-8 0
-9 0
-10 0
-11 0
12 0
13 0
14 0
15 0
16 0
-17 0
18 0
-19 0
20 0
21 0
22 0
-23 0
24 0
25 0
26 0
-27 0
28 0
29 0
-30 0
-31 0
32 0
-33 0
34 0
-35 0
36 0
-47 0
48 0
-49 0
50 0
51 0
-52 0
-53 0
c New duplicated circuit:
217 270 0
-217 -270 0
218 271 0
-218 -271 0
220 272 0
-220 -272 0
222 273 0
-222 -273 0
423 274 0
-423 -274 0
424 275 0
-424 -275 0
228 276 0
-228 -276 0
230 277 0
-230 -277 0
232 278 0
-232 -278 0
234 279 0
-234 -279 0
236 280 0
-236 -280 0
238 281 0
-238 -281 0
428 282 0
-428 -282 0
242 283 0
-242 -283 0
244 284 0
-244 -284 0
430 285 0
-430 -285 0
248 286 0
-248 -286 0
250 287 0
-250 -287 0
-270 -218 -288 0
270 288 0
218 288 0
219 271 289 0
-219 -289 0
-271 -289 0
426 271 290 0
-426 -290 0
-271 -290 0
-272 -222 -291 0
272 291 0
222 291 0
-274 -424 -292 0
274 292 0
424 292 0
-276 -230 -293 0
276 293 0
230 293 0
-278 -234 -294 0
278 294 0
234 294 0
-280 -238 -295 0
280 295 0
238 295 0
-282 -242 -296 0
282 296 0
242 296 0
-284 -430 -297 0
284 297 0
430 297 0
-286 -250 -298 0
286 298 0
250 298 0
223 273 299 0
-223 -299 0
-273 -299 0
225 273 300 0
-225 -300 0
-273 -300 0
227 275 301 0
-227 -301 0
-275 -301 0
229 275 302 0
-229 -302 0
-275 -302 0
231 277 303 0
-231 -303 0
-277 -303 0
233 277 304 0
-233 -304 0
-277 -304 0
235 279 305 0
-235 -305 0
-279 -305 0
237 279 306 0
-237 -306 0
-279 -306 0
431 281 307 0
-431 -307 0
-281 -307 0
241 281 308 0
-241 -308 0
-281 -308 0
243 283 309 0
-243 -309 0
-283 -309 0
432 283 310 0
-432 -310 0
-283 -310 0
429 285 311 0
-429 -311 0
-285 -311 0
249 285 312 0
-249 -312 0
-285 -312 0
251 287 313 0
-251 -313 0
-287 -313 0
252 287 314 0
-252 -314 0
-287 -314 0
-288 -291 -292 -293 -294 -295 -296 -297 -298 315 0
288 -315 0
291 -315 0
292 -315 0
293 -315 0
294 -315 0
295 -315 0
296 -315 0
297 -315 0
298 -315 0
315 316 0
-315 -316 0
315 317 0
-315 -317 0
315 263 0
-315 -263 0
-316 -288 -318 0
316 288 -318 0
316 -288 318 0
-316 288 318 0
-316 -291 -319 0
316 291 -319 0
316 -291 319 0
-316 291 319 0
-316 -292 -320 0
316 292 -320 0
316 -292 320 0
-316 292 320 0
-316 -293 -321 0
316 293 -321 0
316 -293 321 0
-316 293 321 0
-316 -294 -322 0
316 294 -322 0
316 -294 322 0
-316 294 322 0
-316 -295 -323 0
316 295 -323 0
316 -295 323 0
-316 295 323 0
-217 -317 -324 0
217 324 0
317 324 0
-316 -296 -325 0
316 296 -325 0
316 -296 325 0
-316 296 325 0
-317 -220 -326 0
317 326 0
220 326 0
-316 -297 -327 0
316 297 -327 0
316 -297 327 0
-316 297 327 0
-317 -423 -328 0
317 328 0
423 328 0
-316 -298 -329 0
316 298 -329 0
316 -298 329 0
-316 298 329 0
-317 -228 -330 0
317 330 0
228 330 0
-317 -232 -331 0
317 331 0
232 331 0
-317 -236 -332 0
317 332 0
236 332 0
-317 -428 -333 0
317 333 0
428 333 0
-317 -244 -334 0
317 334 0
244 334 0
-317 -248 -335 0
317 335 0
248 335 0
-318 -289 -336 0
318 336 0
289 336 0
-318 -290 -337 0
318 337 0
290 337 0
-319 -299 -338 0
319 338 0
299 338 0
-320 -301 -339 0
320 339 0
301 339 0
-321 -303 -340 0
321 340 0
303 340 0
-322 -305 -341 0
322 341 0
305 341 0
-323 -307 -342 0
323 342 0
307 342 0
-325 -309 -343 0
325 343 0
309 343 0
-327 -311 -344 0
327 344 0
311 344 0
-329 -313 -345 0
329 345 0
313 345 0
-319 -300 -346 0
319 346 0
300 346 0
-320 -302 -347 0
320 347 0
302 347 0
-321 -304 -348 0
321 348 0
304 348 0
-322 -306 -349 0
322 349 0
306 349 0
-323 -308 -350 0
323 350 0
308 350 0
-325 -310 -351 0
325 351 0
310 351 0
-327 -312 -352 0
327 352 0
312 352 0
-329 -314 -353 0
329 353 0
314 353 0
-336 -338 -339 -340 -341 -342 -343 -344 -345 354 0
336 -354 0
338 -354 0
339 -354 0
340 -354 0
341 -354 0
342 -354 0
343 -354 0
344 -354 0
345 -354 0
337 355 0
-337 -355 0
346 356 0
-346 -356 0
347 357 0
-347 -357 0
348 358 0
-348 -358 0
349 359 0
-349 -359 0
350 360 0
-350 -360 0
351 361 0
-351 -361 0
352 362 0
-352 -362 0
353 363 0
-353 -363 0
354 364 0
-354 -364 0
354 365 0
-354 -365 0
354 427 0
-354 -427 0
-364 -336 -366 0
364 336 -366 0
364 -336 366 0
-364 336 366 0
-364 -338 -367 0
364 338 -367 0
364 -338 367 0
-364 338 367 0
-364 -339 -368 0
364 339 -368 0
364 -339 368 0
-364 339 368 0
-364 -340 -369 0
364 340 -369 0
364 -340 369 0
-364 340 369 0
-219 -365 -370 0
219 370 0
365 370 0
-364 -341 -371 0
364 341 -371 0
364 -341 371 0
-364 341 371 0
-365 -223 -372 0
365 372 0
223 372 0
-364 -342 -373 0
364 342 -373 0
364 -342 373 0
-364 342 373 0
-365 -227 -374 0
365 374 0
227 374 0
-364 -343 -375 0
364 343 -375 0
364 -343 375 0
-364 343 375 0
-365 -231 -376 0
365 376 0
231 376 0
-364 -344 -377 0
364 344 -377 0
364 -344 377 0
-364 344 377 0
-365 -235 -378 0
365 378 0
235 378 0
-364 -345 -379 0
364 345 -379 0
364 -345 379 0
-364 345 379 0
-365 -431 -380 0
365 380 0
431 380 0
-365 -243 -381 0
365 381 0
243 381 0
-365 -429 -382 0
365 382 0
429 382 0
-365 -251 -383 0
365 383 0
251 383 0
-366 -355 -384 0
366 384 0
355 384 0
-367 -356 -385 0
367 385 0
356 385 0
-368 -357 -386 0
368 386 0
357 386 0
-369 -358 -387 0
369 387 0
358 387 0
-371 -359 -388 0
371 388 0
359 388 0
-373 -360 -389 0
373 389 0
360 389 0
-375 -361 -390 0
375 390 0
361 390 0
-377 -362 -391 0
377 391 0
362 391 0
-379 -363 -392 0
379 392 0
363 392 0
-384 -385 -386 -387 -388 -389 -390 -391 -392 393 0
384 -393 0
385 -393 0
386 -393 0
387 -393 0
388 -393 0
389 -393 0
390 -393 0
391 -393 0
392 -393 0
393 394 0
-393 -394 0
393 265 0
-393 -265 0
-426 -394 -395 0
426 395 0
394 395 0
-394 -225 -396 0
394 396 0
225 396 0
-394 -229 -397 0
394 397 0
229 397 0
-394 -233 -398 0
394 398 0
233 398 0
-394 -237 -399 0
394 399 0
237 399 0
-394 -241 -400 0
394 400 0
241 400 0
-394 -432 -401 0
394 401 0
432 401 0
-394 -249 -402 0
394 402 0
249 402 0
-394 -252 -403 0
394 403 0
252 403 0
-218 -324 -370 -395 -404 0
218 404 0
324 404 0
370 404 0
395 404 0
-326 -372 -396 -222 -405 0
326 405 0
372 405 0
396 405 0
222 405 0
-328 -374 -397 -424 -406 0
328 406 0
374 406 0
397 406 0
424 406 0
-330 -376 -398 -230 -407 0
330 407 0
376 407 0
398 407 0
230 407 0
-331 -378 -399 -234 -408 0
331 408 0
378 408 0
399 408 0
234 408 0
-332 -380 -400 -238 -409 0
332 409 0
380 409 0
400 409 0
238 409 0
-333 -381 -401 -242 -410 0
333 410 0
381 410 0
401 410 0
242 410 0
-334 -382 -402 -430 -411 0
334 411 0
382 411 0
402 411 0
430 411 0
-335 -383 -403 -250 -412 0
335 412 0
383 412 0
403 412 0
250 412 0
404 413 0
-404 -413 0
-405 -406 -407 -408 -409 -410 -411 -412 414 0
405 -414 0
406 -414 0
407 -414 0
408 -414 0
409 -414 0
410 -414 0
411 -414 0
412 -414 0
407 415 0
-407 -415 0
409 416 0
-409 -416 0
410 417 0
-410 -417 0
411 418 0
-411 -418 0
413 414 425 0
-413 -425 0
-414 -425 0
-406 -415 -419 0
406 419 0
415 419 0
-406 -407 -416 -408 -420 0
406 420 0
407 420 0
416 420 0
408 420 0
-408 -407 -417 -421 0
408 421 0
407 421 0
417 421 0
-406 -407 -410 -418 -422 0
406 422 0
407 422 0
410 422 0
418 422 0
-405 -406 -419 -408 -267 0
405 267 0
406 267 0
419 267 0
408 267 0
-405 -406 -420 -421 -268 0
405 268 0
406 268 0
420 268 0
421 268 0
-405 -419 -420 -422 -269 0
405 269 0
419 269 0
420 269 0
422 269 0
-253 -224 -423 0
253 224 -423 0
253 -224 423 0
-253 224 423 0
-254 -226 -424 0
254 226 -424 0
254 -226 424 0
-254 226 424 0
-255 -240 -428 0
255 240 -428 0
255 -240 428 0
-255 240 428 0
-256 -246 -430 0
256 246 -430 0
256 -246 430 0
-256 246 430 0
-257 -221 -426 0
257 221 -426 0
257 -221 426 0
-257 221 426 0
-258 -239 -431 0
258 239 -431 0
258 -239 431 0
-258 239 431 0
-259 -245 -432 0
259 245 -432 0
259 -245 432 0
-259 245 432 0
-260 -247 -429 0
260 247 -429 0
260 -247 429 0
-260 247 429 0
-261 -427 -264 0
261 427 -264 0
261 -427 264 0
-261 427 264 0
-262 -425 -266 0
262 425 -266 0
262 -425 266 0
-262 425 266 0
37 -253 0
-37 253 0
38 -254 0
-38 254 0
39 -255 0
-39 255 0
40 -256 0
-40 256 0
41 -257 0
-41 257 0
42 -258 0
-42 258 0
43 -259 0
-43 259 0
44 -260 0
-44 260 0
45 -261 0
-45 261 0
46 -262 0
-46 262 0
-217 0
-218 0
-219 0
220 0
-221 0
222 0
-223 0
-224 0
225 0
-226 0
-227 0
-228 0
229 0
-230 0
-231 0
-232 0
-233 0
-234 0
-235 0
236 0
-237 0
238 0
-239 0
-240 0
-241 0
-242 0
-243 0
-244 0
-245 0
-246 0
-247 0
-248 0
-249 0
-250 0
-251 0
-252 0
-263 0
264 0
265 0
266 0
-267 0
268 0
269 0
c New duplicated circuit:
433 486 0
-433 -486 0
434 487 0
-434 -487 0
436 488 0
-436 -488 0
438 489 0
-438 -489 0
639 490 0
-639 -490 0
640 491 0
-640 -491 0
444 492 0
-444 -492 0
446 493 0
-446 -493 0
448 494 0
-448 -494 0
450 495 0
-450 -495 0
452 496 0
-452 -496 0
454 497 0
-454 -497 0
644 498 0
-644 -498 0
458 499 0
-458 -499 0
460 500 0
-460 -500 0
646 501 0
-646 -501 0
464 502 0
-464 -502 0
466 503 0
-466 -503 0
-486 -434 -504 0
486 504 0
434 504 0
435 487 505 0
-435 -505 0
-487 -505 0
642 487 506 0
-642 -506 0
-487 -506 0
-488 -438 -507 0
488 507 0
438 507 0
-490 -640 -508 0
490 508 0
640 508 0
-492 -446 -509 0
492 509 0
446 509 0
-494 -450 -510 0
494 510 0
450 510 0
-496 -454 -511 0
496 511 0
454 511 0
-498 -458 -512 0
498 512 0
458 512 0
-500 -646 -513 0
500 513 0
646 513 0
-502 -466 -514 0
502 514 0
466 514 0
439 489 515 0
-439 -515 0
-489 -515 0
441 489 516 0
-441 -516 0
-489 -516 0
443 491 517 0
-443 -517 0
-491 -517 0
445 491 518 0
-445 -518 0
-491 -518 0
447 493 519 0
-447 -519 0
-493 -519 0
449 493 520 0
-449 -520 0
-493 -520 0
451 495 521 0
-451 -521 0
-495 -521 0
453 495 522 0
-453 -522 0
-495 -522 0
647 497 523 0
-647 -523 0
-497 -523 0
457 497 524 0
-457 -524 0
-497 -524 0
459 499 525 0
-459 -525 0
-499 -525 0
648 499 526 0
-648 -526 0
-499 -526 0
645 501 527 0
-645 -527 0
-501 -527 0
465 501 528 0
-465 -528 0
-501 -528 0
467 503 529 0
-467 -529 0
-503 -529 0
468 503 530 0
-468 -530 0
-503 -530 0
-504 -507 -508 -509 -510 -511 -512 -513 -514 531 0
504 -531 0
507 -531 0
508 -531 0
509 -531 0
510 -531 0
511 -531 0
512 -531 0
513 -531 0
514 -531 0
531 532 0
-531 -532 0
531 533 0
-531 -533 0
531 479 0
-531 -479 0
-532 -504 -534 0
532 504 -534 0
532 -504 534 0
-532 504 534 0
-532 -507 -535 0
532 507 -535 0
532 -507 535 0
-532 507 535 0
-532 -508 -536 0
532 508 -536 0
532 -508 536 0
-532 508 536 0
-532 -509 -537 0
532 509 -537 0
532 -509 537 0
-532 509 537 0
-532 -510 -538 0
532 510 -538 0
532 -510 538 0
-532 510 538 0
-532 -511 -539 0
532 511 -539 0
532 -511 539 0
-532 511 539 0
-433 -533 -540 0
433 540 0
533 540 0
-532 -512 -541 0
532 512 -541 0
532 -512 541 0
-532 512 541 0
-533 -436 -542 0
533 542 0
436 542 0
-532 -513 -543 0
532 513 -543 0
532 -513 543 0
-532 513 543 0
-533 -639 -544 0
533 544 0
639 544 0
-532 -514 -545 0
532 514 -545 0
532 -514 545 0
-532 514 545 0
-533 -444 -546 0
533 546 0
444 546 0
-533 -448 -547 0
533 547 0
448 547 0
-533 -452 -548 0
533 548 0
452 548 0
-533 -644 -549 0
533 549 0
644 549 0
-533 -460 -550 0
533 550 0
460 550 0
-533 -464 -551 0
533 551 0
464 551 0
-534 -505 -552 0
534 552 0
505 552 0
-534 -506 -553 0
534 553 0
506 553 0
-535 -515 -554 0
535 554 0
515 554 0
-536 -517 -555 0
536 555 0
517 555 0
-537 -519 -556 0
537 556 0
519 556 0
-538 -521 -557 0
538 557 0
521 557 0
-539 -523 -558 0
539 558 0
523 558 0
-541 -525 -559 0
541 559 0
525 559 0
-543 -527 -560 0
543 560 0
527 560 0
-545 -529 -561 0
545 561 0
529 561 0
-535 -516 -562 0
535 562 0
516 562 0
-536 -518 -563 0
536 563 0
518 563 0
-537 -520 -564 0
537 564 0
520 564 0
-538 -522 -565 0
538 565 0
522 565 0
-539 -524 -566 0
539 566 0
524 566 0
-541 -526 -567 0
541 567 0
526 567 0
-543 -528 -568 0
543 568 0
528 568 0
-545 -530 -569 0
545 569 0
530 569 0
-552 -554 -555 -556 -557 -558 -559 -560 -561 570 0
552 -570 0
554 -570 0
555 -570 0
556 -570 0
557 -570 0
558 -570 0
559 -570 0
560 -570 0
561 -570 0
553 571 0
-553 -571 0
562 572 0
-562 -572 0
563 573 0
-563 -573 0
564 574 0
-564 -574 0
565 575 0
-565 -575 0
566 576 0
-566 -576 0
567 577 0
-567 -577 0
568 578 0
-568 -578 0
569 579 0
-569 -579 0
570 580 0
-570 -580 0
570 581 0
-570 -581 0
570 643 0
-570 -643 0
-580 -552 -582 0
580 552 -582 0
580 -552 582 0
-580 552 582 0
-580 -554 -583 0
580 554 -583 0
580 -554 583 0
-580 554 583 0
-580 -555 -584 0
580 555 -584 0
580 -555 584 0
-580 555 584 0
-580 -556 -585 0
580 556 -585 0
580 -556 585 0
-580 556 585 0
-435 -581 -586 0
435 586 0
581 586 0
-580 -557 -587 0
580 557 -587 0
580 -557 587 0
-580 557 587 0
-581 -439 -588 0
581 588 0
439 588 0
-580 -558 -589 0
580 558 -589 0
580 -558 589 0
-580 558 589 0
-581 -443 -590 0
581 590 0
443 590 0
-580 -559 -591 0
580 559 -591 0
580 -559 591 0
-580 559 591 0
-581 -447 -592 0
581 592 0
447 592 0
-580 -560 -593 0
580 560 -593 0
580 -560 593 0
-580 560 593 0
-581 -451 -594 0
581 594 0
451 594 0
-580 -561 -595 0
580 561 -595 0
580 -561 595 0
-580 561 595 0
-581 -647 -596 0
581 596 0
647 596 0
-581 -459 -597 0
581 597 0
459 597 0
-581 -645 -598 0
581 598 0
645 598 0
-581 -467 -599 0
581 599 0
467 599 0
-582 -571 -600 0
582 600 0
571 600 0
-583 -572 -601 0
583 601 0
572 601 0
-584 -573 -602 0
584 602 0
573 602 0
-585 -574 -603 0
585 603 0
574 603 0
-587 -575 -604 0
587 604 0
575 604 0
-589 -576 -605 0
589 605 0
576 605 0
-591 -577 -606 0
591 606 0
577 606 0
-593 -578 -607 0
593 607 0
578 607 0
-595 -579 -608 0
595 608 0
579 608 0
-600 -601 -602 -603 -604 -605 -606 -607 -608 609 0
600 -609 0
601 -609 0
602 -609 0
603 -609 0
604 -609 0
605 -609 0
606 -609 0
607 -609 0
608 -609 0
609 610 0
-609 -610 0
609 481 0
-609 -481 0
-642 -610 -611 0
642 611 0
610 611 0
-610 -441 -612 0
610 612 0
441 612 0
-610 -445 -613 0
610 613 0
445 613 0
-610 -449 -614 0
610 614 0
449 614 0
-610 -453 -615 0
610 615 0
453 615 0
-610 -457 -616 0
610 616 0
457 616 0
-610 -648 -617 0
610 617 0
648 617 0
-610 -465 -618 0
610 618 0
465 618 0
-610 -468 -619 0
610 619 0
468 619 0
-434 -540 -586 -611 -620 0
434 620 0
540 620 0
586 620 0
611 620 0
-542 -588 -612 -438 -621 0
542 621 0
588 621 0
612 621 0
438 621 0
-544 -590 -613 -640 -622 0
544 622 0
590 622 0
613 622 0
640 622 0
-546 -592 -614 -446 -623 0
546 623 0
592 623 0
614 623 0
446 623 0
-547 -594 -615 -450 -624 0
547 624 0
594 624 0
615 624 0
450 624 0
-548 -596 -616 -454 -625 0
548 625 0
596 625 0
616 625 0
454 625 0
-549 -597 -617 -458 -626 0
549 626 0
597 626 0
617 626 0
458 626 0
-550 -598 -618 -646 -627 0
550 627 0
598 627 0
618 627 0
646 627 0
-551 -599 -619 -466 -628 0
551 628 0
599 628 0
619 628 0
466 628 0
620 629 0
-620 -629 0
-621 -622 -623 -624 -625 -626 -627 -628 630 0
621 -630 0
622 -630 0
623 -630 0
624 -630 0
625 -630 0
626 -630 0
627 -630 0
628 -630 0
623 631 0
-623 -631 0
625 632 0
-625 -632 0
626 633 0
-626 -633 0
627 634 0
-627 -634 0
629 630 641 0
-629 -641 0
-630 -641 0
-622 -631 -635 0
622 635 0
631 635 0
-622 -623 -632 -624 -636 0
622 636 0
623 636 0
632 636 0
624 636 0
-624 -623 -633 -637 0
624 637 0
623 637 0
633 637 0
-622 -623 -626 -634 -638 0
622 638 0
623 638 0
626 638 0
634 638 0
-621 -622 -635 -624 -483 0
621 483 0
622 483 0
635 483 0
624 483 0
-621 -622 -636 -637 -484 0
621 484 0
622 484 0
636 484 0
637 484 0
-621 -635 -636 -638 -485 0
621 485 0
635 485 0
636 485 0
638 485 0
-469 -440 -639 0
469 440 -639 0
469 -440 639 0
-469 440 639 0
-470 -442 -640 0
470 442 -640 0
470 -442 640 0
-470 442 640 0
-471 -456 -644 0
471 456 -644 0
471 -456 644 0
-471 456 644 0
-472 -462 -646 0
472 462 -646 0
472 -462 646 0
-472 462 646 0
-473 -437 -642 0
473 437 -642 0
473 -437 642 0
-473 437 642 0
-474 -455 -647 0
474 455 -647 0
474 -455 647 0
-474 455 647 0
-475 -461 -648 0
475 461 -648 0
475 -461 648 0
-475 461 648 0
-476 -463 -645 0
476 463 -645 0
476 -463 645 0
-476 463 645 0
-477 -643 -480 0
477 643 -480 0
477 -643 480 0
-477 643 480 0
-478 -641 -482 0
478 641 -482 0
478 -641 482 0
-478 641 482 0
37 -469 0
-37 469 0
38 -470 0
-38 470 0
39 -471 0
-39 471 0
40 -472 0
-40 472 0
41 -473 0
-41 473 0
42 -474 0
-42 474 0
43 -475 0
-43 475 0
44 -476 0
-44 476 0
45 -477 0
-45 477 0
46 -478 0
-46 478 0
-433 0
434 0
435 0
436 0
437 0
438 0
439 0
440 0
-441 0
442 0
-443 0
444 0
-445 0
-446 0
447 0
-448 0
449 0
-450 0
-451 0
452 0
453 0
454 0
455 0
456 0
-457 0
458 0
459 0
-460 0
461 0
462 0
463 0
464 0
-465 0
466 0
-467 0
468 0
479 0
-480 0
481 0
482 0
-483 0
-484 0
485 0
